==> MAXTIME              = 3600
==> OUTPUTLOG            = 1
FICO Xpress v8.5.9, solve started 23:34:17, Jun 8, 2019
Maximizing MILP Seating model
Original problem has:
       230 rows          300 cols         7440 elements       300 globals
Presolved problem has:
       103 rows          204 cols         2431 elements       198 globals
LP relaxation tightened
Will try to keep branch and bound tree memory usage below 7.2GB
 *** Heuristic solution found:    22.000000      Time: 0 ***
Starting concurrent solve with dual

 Concurrent-Solve,   0s
            Dual        
    objective   dual inf
 D  102.00000   .0000000
------- optimal --------
Concurrent statistics:
      Dual: 34 simplex iterations, 0.00s
Optimal solution found
 
   Its         Obj Value      S   Ninf  Nneg   Sum Dual Inf  Time
    34        102.000000      D      0     0        .000000     0
Dual solved problem
  34 simplex iterations in 0s

Final objective                         : 1.020000000000000e+02
  Max primal violation      (abs / rel) : 1.110e-16 / 9.869e-17
  Max dual violation        (abs / rel) :       0.0 /       0.0
  Max complementarity viol. (abs / rel) :       0.0 /       0.0
All values within tolerances

Starting root cutting & heuristics
 
 Its Type    BestSoln    BestBound   Sols    Add    Del     Gap     GInf   Time
   1  K     22.000000   102.000000      1     99      0   78.43%      29      0
   2  K     22.000000   102.000000      1    111     81   78.43%      43      0
   3  K     22.000000   102.000000      1     92    101   78.43%      48      0
b           28.000000   102.000000      2                 72.55%       0      0
   4  K     28.000000   102.000000      2     87     94   72.55%      35      0
   5  K     28.000000   102.000000      2    100     83   72.55%      49      0
   6  K     28.000000   102.000000      2     93     97   72.55%      47      0
   7  K     28.000000   102.000000      2     89     88   72.55%      58      0
b           35.000000   102.000000      3                 65.69%       0      0
   8  K     35.000000   102.000000      3     81     91   65.69%      37      0
   9  K     35.000000   102.000000      3     95     87   65.69%      48      0
  10  K     35.000000   102.000000      3     97     89   65.69%      58      0
  11  K     35.000000   102.000000      3     83     86   65.69%      67      0
  12  K     35.000000   102.000000      3     93     82   65.69%      72      0
  13  K     35.000000   102.000000      3     87     85   65.69%      76      0
  14  K     35.000000   102.000000      3      2     83   65.69%      39      0
  15  K     35.000000   102.000000      3      1      7   65.69%      39      0
  16  K     35.000000   102.000000      3      1     13   65.69%      39      0
  17  K     35.000000   102.000000      3     96      8   65.69%      58      0
  18  K     35.000000   102.000000      3      2     91   65.69%      39      0
b           47.000000   102.000000      4                 53.92%       0      0
  19  K     47.000000   102.000000      4     93     14   53.92%      52      0
  20  K     47.000000   102.000000      4     99    150   53.92%      59      0
  21  G     47.000000   102.000000      4     39     31   53.92%      41      0
  22  G     47.000000   102.000000      4     70    110   53.92%      55      0
Heuristic search started
Heuristic search stopped
 
Cuts in the matrix         : 39
Cut elements in the matrix : 1106
 
Starting tree search.
Deterministic mode with up to 4 running threads and up to 8 tasks.
 
    Node     BestSoln    BestBound   Sols Active  Depth     Gap     GInf   Time
       1    47.000000   102.000000      4      2      1   53.92%      45      1
       2    47.000000   102.000000      4      2      2   53.92%      57      1
       3    47.000000   102.000000      4      2      3   53.92%      45      1
       4    47.000000   102.000000      4      2      2   53.92%      35      1
       5    47.000000   102.000000      4      2      3   53.92%      48      1
       6    47.000000   102.000000      4      2      4   53.92%      46      1
       7    47.000000   102.000000      4      5      3   53.92%      47      1
       8    47.000000   102.000000      4      5      4   53.92%      48      1
       9    47.000000   102.000000      4      5      4   53.92%      27      1
      10    47.000000   102.000000      4      8      5   53.92%      38      1
      24    47.000000   102.000000      4     17     11   53.92%      53      1
      36    47.000000   102.000000      4     17     16   53.92%      38      1
      48    47.000000   102.000000      4     25     18   53.92%      21      1
      59    47.000000   102.000000      4     25     16   53.92%      34      1
      72    47.000000   102.000000      4     25     13   53.92%      42      1
      92    47.000000   102.000000      4     25     19   53.92%      22      1
     106    47.000000   102.000000      4     42     11   53.92%      56      1
     212    47.000000   102.000000      4     59     16   53.92%      42      1
     314    47.000000   102.000000      4     59     22   53.92%      37      1
B&B tree size: 1.5MB total
 
    Node     BestSoln    BestBound   Sols Active  Depth     Gap     GInf   Time
     415    47.000000   102.000000      4     59     11   53.92%      24      1
     518    47.000000   102.000000      4     86     26   53.92%      11      1
a    604    49.000000   102.000000      5    120     22   51.96%       0      1
a    607    58.000000   102.000000      6    120     24   43.14%       0      1
     627    58.000000   102.000000      6    120     26   43.14%      12      1
     743    58.000000   102.000000      6    121     23   43.14%      15      1
     848    58.000000   102.000000      6    151     23   43.14%      13      1
     952    58.000000   100.991121      6    221     16   42.57%      19      1
    1059    58.000000   100.991121      6    249     19   42.57%      47      1
    1170    58.000000   100.991121      6    279     19   42.57%      14      2
    1278    58.000000   100.991121      6    279     15   42.57%      33      2
    1393    58.000000   100.991121      6    325     14   42.57%      49      2
    1493    58.000000   100.991121      6    325     17   42.57%      21      2
    1595    58.000000   100.991121      6    347     10   42.57%      51      2
    1708    58.000000   100.991121      6    347     23   42.57%      18      2
    1817    58.000000   100.991121      6    347     16   42.57%      23      2
    1927    58.000000   100.991121      6    347     24   42.57%      15      2
    2032    58.000000   100.991121      6    347     15   42.57%      38      2
    2133    58.000000   100.991121      6    347     19   42.57%      26      2
    2240    58.000000   100.991121      6    464     17   42.57%      43      2
B&B tree size: 5.2MB total
 
    Node     BestSoln    BestBound   Sols Active  Depth     Gap     GInf   Time
    2357    58.000000   100.991121      6    464     17   42.57%      43      2
    2461    58.000000   100.991121      6    464     17   42.57%      45      2
    2561    58.000000   100.991121      6    464     16   42.57%      30      2
a   2652    60.000000   100.991121      7    504     23   40.59%       0      3
    2668    60.000000   100.991121      7    504     18   40.59%      23      3
    2769    60.000000   100.991121      7    515     19   40.59%      32      3
    2878    60.000000   100.991121      7    554     19   40.59%      24      3
    2979    60.000000   100.991121      7    554     16   40.59%      42      3
    3090    60.000000   100.991121      7    554     20   40.59%       3      3
    3204    60.000000   100.991121      7    554     19   40.59%      44      3
    3317    60.000000   100.991121      7    554     16   40.59%      24      3
    3423    60.000000   100.991121      7    554     16   40.59%      47      3
    3526    60.000000   100.991121      7    603     16   40.59%      27      3
    3629    60.000000   100.991121      7    603     16   40.59%      30      3
    3740    60.000000   100.991121      7    611     20   40.59%      41      3
    3842    60.000000   100.367489      7    736     16   40.22%      31      3
    3948    60.000000   100.367489      7    736     22   40.22%      37      3
    4054    60.000000   100.367489      7    750     18   40.22%      25      4
    4155    60.000000   100.367489      7    750     26   40.22%      21      4
    4266    60.000000    99.567502      7    864     23   39.74%      29      4
B&B tree size: 8.1MB total
 
    Node     BestSoln    BestBound   Sols Active  Depth     Gap     GInf   Time
    4366    60.000000    99.567502      7    986     16   39.74%      41      4
    4468    60.000000    99.567502      7   1025     16   39.74%      39      4
    4571    60.000000    99.567502      7   1025     15   39.74%      52      4
    4693    60.000000    99.567502      7   1025     21   39.74%      36      4
    4801    60.000000    99.567502      7   1025     17   39.74%      36      4
    4915    60.000000    99.567502      7   1025     23   39.74%      29      4
    5021    60.000000    99.567502      7   1025     16   39.74%      30      4
    5125    60.000000    99.567502      7   1047     16   39.74%      46      4
    5238    60.000000    99.567502      7   1052     25   39.74%      29      4
    5347    60.000000    99.567502      7   1052     19   39.74%      50      4
    5456    60.000000    99.567502      7   1052     19   39.74%      33      4
    5561    60.000000    99.567502      7   1052     18   39.74%      29      4
    5667    60.000000    99.567502      7   1052     11   39.74%      61      5
    5781    60.000000    99.567502      7   1052     17   39.74%      38      5
    5893    60.000000    99.567502      7   1093     19   39.74%      31      5
    5993    60.000000    99.567502      7   1144     17   39.74%      28      5
    6095    60.000000    99.567502      7   1177     22   39.74%      26      5
    6213    60.000000    99.567502      7   1177     23   39.74%      31      5
    6328    60.000000    99.567502      7   1177     20   39.74%      33      5
    6438    60.000000    99.567502      7   1235     22   39.74%      17      5
B&B tree size: 11MB total
 
    Node     BestSoln    BestBound   Sols Active  Depth     Gap     GInf   Time
    6559    60.000000    99.567502      7   1238     23   39.74%      38      5
    6659    60.000000    99.567502      7   1305     23   39.74%      26      5
    6762    60.000000    99.567502      7   1305     16   39.74%      46      5
    6866    60.000000    99.567502      7   1305     17   39.74%      41      5
    6975    60.000000    99.567502      7   1305     25   39.74%       1      6
    7082    60.000000    99.567502      7   1350     23   39.74%      21      6
    7199    60.000000    92.761184      7   1475     24   35.32%      17      6
    7302    60.000000    92.761184      7   1475     19   35.32%      43      6
    7410    60.000000    92.761184      7   1475     19   35.32%      33      6
    7512    60.000000    92.761184      7   1543     16   35.32%      39      6
    7615    60.000000    92.761184      7   1543     23   35.32%      17      6
    7720    60.000000    92.761184      7   1543     16   35.32%      46      6
    7828    60.000000    92.761184      7   1623     27   35.32%      11      6
    7929    60.000000    92.761184      7   1634     17   35.32%      54      6
    8033    60.000000    92.761184      7   1634     17   35.32%      49      6
    8138    60.000000    92.761184      7   1634     22   35.32%      40      6
    8256    60.000000    92.761184      7   1658     23   35.32%      31      6
    8367    60.000000    92.761184      7   1658     21   35.32%      42      6
    8487    60.000000    92.761184      7   1658     22   35.32%      19      7
    8595    60.000000    92.761184      7   1658     23   35.32%      25      7
B&B tree size: 15MB total
 
    Node     BestSoln    BestBound   Sols Active  Depth     Gap     GInf   Time
    8700    60.000000    92.761184      7   1658     18   35.32%      29      7
    8802    60.000000    92.761184      7   1667     20   35.32%      25      7
    8903    60.000000    92.761184      7   1675     23   35.32%      34      7
    9007    60.000000    92.761184      7   1675     25   35.32%      20      7
    9122    60.000000    87.839720      7   1711     28   31.69%      29      7
    9223    60.000000    87.839720      7   1723     16   31.69%      34      7
    9339    60.000000    87.839720      7   1737     19   31.69%      42      7
    9442    60.000000    83.006380      7   1772     16   27.72%      52      7
    9562    60.000000    83.006380      7   1802     16   27.72%      28      7
    9664    60.000000    83.006380      7   1802     26   27.72%      39      7
    9768    60.000000    82.789595      7   1821     22   27.53%      36      7
    9874    60.000000    82.789595      7   1821     18   27.53%      35      7
    9984    60.000000    82.789595      7   1821     23   27.53%      23      8
   10089    60.000000    82.789595      7   1821     16   27.53%      42      8
   11099    60.000000    82.320161      7   1921     18   27.11%      37      8
   12112    60.000000    82.320161      7   2121     24   27.11%      35      9
   13115    60.000000    80.745762      7   2167     13   25.69%      31     10
   14115    60.000000    79.858485      7   2226     25   24.87%      11     10
   15118    60.000000    79.858485      7   2270     19   24.87%      53     11
   16125    60.000000    77.931287      7   2340     12   23.01%      19     12
B&B tree size: 23MB total
 
    Node     BestSoln    BestBound   Sols Active  Depth     Gap     GInf   Time
   17130    60.000000    77.181816      7   2353     25   22.26%      16     12
   18132    60.000000    77.000000      7   2395     16   22.08%      19     13
   19140    60.000000    76.001754      7   2374     18   21.05%      26     14
   20149    60.000000    75.164133      7   2352     21   20.17%      36     14
   21155    60.000000    74.287986      7   2334     21   19.23%      23     15
   22157    60.000000    74.000000      7   2261     20   18.92%      30     15
   23161    60.000000    74.000000      7   2232     23   18.92%      22     16
   24170    60.000000    73.286085      7   2181     16   18.13%      29     16
   25173    60.000000    73.000000      7   2145     22   17.81%      38     17
   26174    60.000000    72.000000      7   2056     19   16.67%      25     17
   27176    60.000000    71.143416      7   1950     19   15.66%      58     18
   28183    60.000000    70.235581      7   1784     25   14.57%      19     18
   29194    60.000000    70.000000      7   1665     27   14.29%      29     19
   30194    60.000000    69.020505      7   1508     20   13.07%      41     19
   31203    60.000000    68.017492      7   1324     19   11.79%      14     20
   32203    60.000000    68.000000      7   1076     16   11.76%      25     20
   33204    60.000000    67.002597      7    736     18   10.45%      38     20
   34204    60.000000    62.780634      7    215     17    4.43%      50     21
 *** Search completed ***     Time:    21 Nodes:      34677
Number of integer feasible solutions found is 7
Best integer solution found is    60.000000
Best bound is    60.000000
Uncrunching matrix
